data/lp_files/q3/69_9.lp
\ Model foo
\ LP format - for model browsing. Use MPS format to capture full model detail.
Minimize
  z
Subject To
 allocateEach[1]: x[1,1] + x[2,1] + x[3,1] + x[4,1] = 1
 allocateEach[2]: x[1,2] + x[2,2] + x[3,2] + x[4,2] = 1
 allocateEach[3]: x[1,3] + x[2,3] + x[3,3] + x[4,3] = 1
 allocateEach[4]: x[1,4] + x[2,4] + x[3,4] + x[4,4] = 1
 allocateEach[5]: x[1,5] + x[2,5] + x[3,5] + x[4,5] = 1
 allocateEach[6]: x[1,6] + x[2,6] + x[3,6] + x[4,6] = 1
 allocateEach[7]: x[1,7] + x[2,7] + x[3,7] + x[4,7] = 1
 allocateEach[8]: x[1,8] + x[2,8] + x[3,8] + x[4,8] = 1
 allocateEach[9]: x[1,9] + x[2,9] + x[3,9] + x[4,9] = 1
 allocateAllCash: cashProportion[1] + cashProportion[2] + cashProportion[3]
   + cashProportion[4] = 1
 findWorstP[1,2]: z + 0.1852057636033634 cashProportion[1]
   - 0.1852057636033634 cashProportion[2] + 0.1641478682816609 x[1,1]
   + 0.1244397525650998 x[1,2] + 0.1025854724599029 x[1,3]
   + 0.0324850909360299 x[1,4] + 0.0371337556024744 x[1,5]
   + 0.1350705633959329 x[1,6] + 0.1152720672667333 x[1,7]
   + 0.0317627884579768 x[1,8] + 0.0718968774308256 x[1,9]
   - 0.1641478682816609 x[2,1] - 0.1244397525650998 x[2,2]
   - 0.1025854724599029 x[2,3] - 0.0324850909360299 x[2,4]
   - 0.0371337556024744 x[2,5] - 0.1350705633959329 x[2,6]
   - 0.1152720672667333 x[2,7] - 0.0317627884579768 x[2,8]
   - 0.0718968774308256 x[2,9] >= 0
 findWorstP[1,3]: z + 0.1852057636033634 cashProportion[1]
   - 0.1852057636033634 cashProportion[3] + 0.1641478682816609 x[1,1]
   + 0.1244397525650998 x[1,2] + 0.1025854724599029 x[1,3]
   + 0.0324850909360299 x[1,4] + 0.0371337556024744 x[1,5]
   + 0.1350705633959329 x[1,6] + 0.1152720672667333 x[1,7]
   + 0.0317627884579768 x[1,8] + 0.0718968774308256 x[1,9]
   - 0.1641478682816609 x[3,1] - 0.1244397525650998 x[3,2]
   - 0.1025854724599029 x[3,3] - 0.0324850909360299 x[3,4]
   - 0.0371337556024744 x[3,5] - 0.1350705633959329 x[3,6]
   - 0.1152720672667333 x[3,7] - 0.0317627884579768 x[3,8]
   - 0.0718968774308256 x[3,9] >= 0
 findWorstP[1,4]: z + 0.1852057636033634 cashProportion[1]
   - 0.1852057636033634 cashProportion[4] + 0.1641478682816609 x[1,1]
   + 0.1244397525650998 x[1,2] + 0.1025854724599029 x[1,3]
   + 0.0324850909360299 x[1,4] + 0.0371337556024744 x[1,5]
   + 0.1350705633959329 x[1,6] + 0.1152720672667333 x[1,7]
   + 0.0317627884579768 x[1,8] + 0.0718968774308256 x[1,9]
   - 0.1641478682816609 x[4,1] - 0.1244397525650998 x[4,2]
   - 0.1025854724599029 x[4,3] - 0.0324850909360299 x[4,4]
   - 0.0371337556024744 x[4,5] - 0.1350705633959329 x[4,6]
   - 0.1152720672667333 x[4,7] - 0.0317627884579768 x[4,8]
   - 0.0718968774308256 x[4,9] >= 0
 findWorstP[2,1]: z - 0.1524390243902439 cashProportion[1]
   + 0.1524390243902439 cashProportion[2] - 0.1314176829268293 x[1,1]
   - 0.1157012195121951 x[1,2] - 0.0613262195121951 x[1,3]
   - 0.1323932926829268 x[1,4] - 0.1052134146341463 x[1,5]
   - 0.0748323170731707 x[1,6] - 0.1192682926829268 x[1,7]
   - 0.0594664634146341 x[1,8] - 0.0479420731707317 x[1,9]
   + 0.1314176829268293 x[2,1] + 0.1157012195121951 x[2,2]
   + 0.0613262195121951 x[2,3] + 0.1323932926829268 x[2,4]
   + 0.1052134146341463 x[2,5] + 0.0748323170731707 x[2,6]
   + 0.1192682926829268 x[2,7] + 0.0594664634146341 x[2,8]
   + 0.0479420731707317 x[2,9] >= 0
 findWorstP[2,3]: z + 0.1524390243902439 cashProportion[2]
   - 0.1524390243902439 cashProportion[3] + 0.1314176829268293 x[2,1]
   + 0.1157012195121951 x[2,2] + 0.0613262195121951 x[2,3]
   + 0.1323932926829268 x[2,4] + 0.1052134146341463 x[2,5]
   + 0.0748323170731707 x[2,6] + 0.1192682926829268 x[2,7]
   + 0.0594664634146341 x[2,8] + 0.0479420731707317 x[2,9]
   - 0.1314176829268293 x[3,1] - 0.1157012195121951 x[3,2]
   - 0.0613262195121951 x[3,3] - 0.1323932926829268 x[3,4]
   - 0.1052134146341463 x[3,5] - 0.0748323170731707 x[3,6]
   - 0.1192682926829268 x[3,7] - 0.0594664634146341 x[3,8]
   - 0.0479420731707317 x[3,9] >= 0
 findWorstP[2,4]: z + 0.1524390243902439 cashProportion[2]
   - 0.1524390243902439 cashProportion[4] + 0.1314176829268293 x[2,1]
   + 0.1157012195121951 x[2,2] + 0.0613262195121951 x[2,3]
   + 0.1323932926829268 x[2,4] + 0.1052134146341463 x[2,5]
   + 0.0748323170731707 x[2,6] + 0.1192682926829268 x[2,7]
   + 0.0594664634146341 x[2,8] + 0.0479420731707317 x[2,9]
   - 0.1314176829268293 x[4,1] - 0.1157012195121951 x[4,2]
   - 0.0613262195121951 x[4,3] - 0.1323932926829268 x[4,4]
   - 0.1052134146341463 x[4,5] - 0.0748323170731707 x[4,6]
   - 0.1192682926829268 x[4,7] - 0.0594664634146341 x[4,8]
   - 0.0479420731707317 x[4,9] >= 0
 findWorstP[3,1]: z - 0.2176989223903342 cashProportion[1]
   + 0.2176989223903342 cashProportion[3] - 0.1770109937955807 x[1,1]
   - 0.1671710025035376 x[1,2] - 0.0164362686404702 x[1,3]
   - 0.00472406661587025 x[1,4] - 0.1477087188418417 x[1,5]
   - 0.1681724175465331 x[1,6] - 0.00783716120605203 x[1,7]
   - 0.0840970937193861 x[1,8] - 0.00914335474039404 x[1,9]
   + 0.1770109937955807 x[3,1] + 0.1671710025035376 x[3,2]
   + 0.0164362686404702 x[3,3] + 0.00472406661587025 x[3,4]
   + 0.1477087188418417 x[3,5] + 0.1681724175465331 x[3,6]
   + 0.00783716120605203 x[3,7] + 0.0840970937193861 x[3,8]
   + 0.00914335474039404 x[3,9] >= 0
 findWorstP[3,2]: z - 0.2176989223903342 cashProportion[2]
   + 0.2176989223903342 cashProportion[3] - 0.1770109937955807 x[2,1]
   - 0.1671710025035376 x[2,2] - 0.0164362686404702 x[2,3]
   - 0.00472406661587025 x[2,4] - 0.1477087188418417 x[2,5]
   - 0.1681724175465331 x[2,6] - 0.00783716120605203 x[2,7]
   - 0.0840970937193861 x[2,8] - 0.00914335474039404 x[2,9]
   + 0.1770109937955807 x[3,1] + 0.1671710025035376 x[3,2]
   + 0.0164362686404702 x[3,3] + 0.00472406661587025 x[3,4]
   + 0.1477087188418417 x[3,5] + 0.1681724175465331 x[3,6]
   + 0.00783716120605203 x[3,7] + 0.0840970937193861 x[3,8]
   + 0.00914335474039404 x[3,9] >= 0
 findWorstP[3,4]: z + 0.2176989223903342 cashProportion[3]
   - 0.2176989223903342 cashProportion[4] + 0.1770109937955807 x[3,1]
   + 0.1671710025035376 x[3,2] + 0.0164362686404702 x[3,3]
   + 0.00472406661587025 x[3,4] + 0.1477087188418417 x[3,5]
   + 0.1681724175465331 x[3,6] + 0.00783716120605203 x[3,7]
   + 0.0840970937193861 x[3,8] + 0.00914335474039404 x[3,9]
   - 0.1770109937955807 x[4,1] - 0.1671710025035376 x[4,2]
   - 0.0164362686404702 x[4,3] - 0.00472406661587025 x[4,4]
   - 0.1477087188418417 x[4,5] - 0.1681724175465331 x[4,6]
   - 0.00783716120605203 x[4,7] - 0.0840970937193861 x[4,8]
   - 0.00914335474039404 x[4,9] >= 0
 findWorstP[4,1]: z - 0.1560305819940709 cashProportion[1]
   + 0.1560305819940709 cashProportion[4] - 0.0878452176626619 x[1,1]
   - 0.1282727414573256 x[1,2] - 0.1250585114682478 x[1,3]
   - 0.1180059291621158 x[1,4] - 0.0550943985021064 x[1,5]
   - 0.1148541114058356 x[1,6] - 0.0500078015290997 x[1,7]
   - 0.0543610547667343 x[1,8] - 0.1104696520518022 x[1,9]
   + 0.0878452176626619 x[4,1] + 0.1282727414573256 x[4,2]
   + 0.1250585114682478 x[4,3] + 0.1180059291621158 x[4,4]
   + 0.0550943985021064 x[4,5] + 0.1148541114058356 x[4,6]
   + 0.0500078015290997 x[4,7] + 0.0543610547667343 x[4,8]
   + 0.1104696520518022 x[4,9] >= 0
 findWorstP[4,2]: z - 0.1560305819940709 cashProportion[2]
   + 0.1560305819940709 cashProportion[4] - 0.0878452176626619 x[2,1]
   - 0.1282727414573256 x[2,2] - 0.1250585114682478 x[2,3]
   - 0.1180059291621158 x[2,4] - 0.0550943985021064 x[2,5]
   - 0.1148541114058356 x[2,6] - 0.0500078015290997 x[2,7]
   - 0.0543610547667343 x[2,8] - 0.1104696520518022 x[2,9]
   + 0.0878452176626619 x[4,1] + 0.1282727414573256 x[4,2]
   + 0.1250585114682478 x[4,3] + 0.1180059291621158 x[4,4]
   + 0.0550943985021064 x[4,5] + 0.1148541114058356 x[4,6]
   + 0.0500078015290997 x[4,7] + 0.0543610547667343 x[4,8]
   + 0.1104696520518022 x[4,9] >= 0
 findWorstP[4,3]: z - 0.1560305819940709 cashProportion[3]
   + 0.1560305819940709 cashProportion[4] - 0.0878452176626619 x[3,1]
   - 0.1282727414573256 x[3,2] - 0.1250585114682478 x[3,3]
   - 0.1180059291621158 x[3,4] - 0.0550943985021064 x[3,5]
   - 0.1148541114058356 x[3,6] - 0.0500078015290997 x[3,7]
   - 0.0543610547667343 x[3,8] - 0.1104696520518022 x[3,9]
   + 0.0878452176626619 x[4,1] + 0.1282727414573256 x[4,2]
   + 0.1250585114682478 x[4,3] + 0.1180059291621158 x[4,4]
   + 0.0550943985021064 x[4,5] + 0.1148541114058356 x[4,6]
   + 0.0500078015290997 x[4,7] + 0.0543610547667343 x[4,8]
   + 0.1104696520518022 x[4,9] >= 0
Bounds
 z <= 1
 -infinity <= cashProportion[1] <= 1
 -infinity <= cashProportion[2] <= 1
 -infinity <= cashProportion[3] <= 1
 -infinity <= cashProportion[4] <= 1
Binaries
 x[1,1] x[1,2] x[1,3] x[1,4] x[1,5] x[1,6] x[1,7] x[1,8] x[1,9] x[2,1]
 x[2,2] x[2,3] x[2,4] x[2,5] x[2,6] x[2,7] x[2,8] x[2,9] x[3,1] x[3,2]
 x[3,3] x[3,4] x[3,5] x[3,6] x[3,7] x[3,8] x[3,9] x[4,1] x[4,2] x[4,3]
 x[4,4] x[4,5] x[4,6] x[4,7] x[4,8] x[4,9]
End
