data/mps_files/q3/69_9.mps
NAME foo
ROWS
 N  OBJ
 E  allocateEach[1]
 E  allocateEach[2]
 E  allocateEach[3]
 E  allocateEach[4]
 E  allocateEach[5]
 E  allocateEach[6]
 E  allocateEach[7]
 E  allocateEach[8]
 E  allocateEach[9]
 E  allocateAllCash
 G  findWorstP[1,2]
 G  findWorstP[1,3]
 G  findWorstP[1,4]
 G  findWorstP[2,1]
 G  findWorstP[2,3]
 G  findWorstP[2,4]
 G  findWorstP[3,1]
 G  findWorstP[3,2]
 G  findWorstP[3,4]
 G  findWorstP[4,1]
 G  findWorstP[4,2]
 G  findWorstP[4,3]
COLUMNS
    z         OBJ       1
    z         findWorstP[1,2]  1
    z         findWorstP[1,3]  1
    z         findWorstP[1,4]  1
    z         findWorstP[2,1]  1
    z         findWorstP[2,3]  1
    z         findWorstP[2,4]  1
    z         findWorstP[3,1]  1
    z         findWorstP[3,2]  1
    z         findWorstP[3,4]  1
    z         findWorstP[4,1]  1
    z         findWorstP[4,2]  1
    z         findWorstP[4,3]  1
    cashProportion[1]  allocateAllCash  1
    cashProportion[1]  findWorstP[1,2]  1.8520576360336335e-01
    cashProportion[1]  findWorstP[1,3]  1.8520576360336335e-01
    cashProportion[1]  findWorstP[1,4]  1.8520576360336335e-01
    cashProportion[1]  findWorstP[2,1]  -1.5243902439024393e-01
    cashProportion[1]  findWorstP[3,1]  -2.1769892239033423e-01
    cashProportion[1]  findWorstP[4,1]  -1.5603058199407088e-01
    cashProportion[2]  allocateAllCash  1
    cashProportion[2]  findWorstP[1,2]  -1.8520576360336335e-01
    cashProportion[2]  findWorstP[2,1]  1.5243902439024393e-01
    cashProportion[2]  findWorstP[2,3]  1.5243902439024393e-01
    cashProportion[2]  findWorstP[2,4]  1.5243902439024393e-01
    cashProportion[2]  findWorstP[3,2]  -2.1769892239033423e-01
    cashProportion[2]  findWorstP[4,2]  -1.5603058199407088e-01
    cashProportion[3]  allocateAllCash  1
    cashProportion[3]  findWorstP[1,3]  -1.8520576360336335e-01
    cashProportion[3]  findWorstP[2,3]  -1.5243902439024393e-01
    cashProportion[3]  findWorstP[3,1]  2.1769892239033423e-01
    cashProportion[3]  findWorstP[3,2]  2.1769892239033423e-01
    cashProportion[3]  findWorstP[3,4]  2.1769892239033423e-01
    cashProportion[3]  findWorstP[4,3]  -1.5603058199407088e-01
    cashProportion[4]  allocateAllCash  1
    cashProportion[4]  findWorstP[1,4]  -1.8520576360336335e-01
    cashProportion[4]  findWorstP[2,4]  -1.5243902439024393e-01
    cashProportion[4]  findWorstP[3,4]  -2.1769892239033423e-01
    cashProportion[4]  findWorstP[4,1]  1.5603058199407088e-01
    cashProportion[4]  findWorstP[4,2]  1.5603058199407088e-01
    cashProportion[4]  findWorstP[4,3]  1.5603058199407088e-01
    MARKER    'MARKER'                 'INTORG'
    x[1,1]    allocateEach[1]  1
    x[1,1]    findWorstP[1,2]  1.6414786828166092e-01
    x[1,1]    findWorstP[1,3]  1.6414786828166092e-01
    x[1,1]    findWorstP[1,4]  1.6414786828166092e-01
    x[1,1]    findWorstP[2,1]  -1.3141768292682926e-01
    x[1,1]    findWorstP[3,1]  -1.7701099379558072e-01
    x[1,1]    findWorstP[4,1]  -8.7845217662661887e-02
    x[1,2]    allocateEach[2]  1
    x[1,2]    findWorstP[1,2]  1.2443975256509983e-01
    x[1,2]    findWorstP[1,3]  1.2443975256509983e-01
    x[1,2]    findWorstP[1,4]  1.2443975256509983e-01
    x[1,2]    findWorstP[2,1]  -1.1570121951219511e-01
    x[1,2]    findWorstP[3,1]  -1.6717100250353761e-01
    x[1,2]    findWorstP[4,1]  -1.2827274145732565e-01
    x[1,3]    allocateEach[3]  1
    x[1,3]    findWorstP[1,2]  1.0258547245990293e-01
    x[1,3]    findWorstP[1,3]  1.0258547245990293e-01
    x[1,3]    findWorstP[1,4]  1.0258547245990293e-01
    x[1,3]    findWorstP[2,1]  -6.1326219512195121e-02
    x[1,3]    findWorstP[3,1]  -1.6436268640470229e-02
    x[1,3]    findWorstP[4,1]  -1.2505851146824778e-01
    x[1,4]    allocateEach[4]  1
    x[1,4]    findWorstP[1,2]  3.2485090936029928e-02
    x[1,4]    findWorstP[1,3]  3.2485090936029928e-02
    x[1,4]    findWorstP[1,4]  3.2485090936029928e-02
    x[1,4]    findWorstP[2,1]  -1.3239329268292682e-01
    x[1,4]    findWorstP[3,1]  -4.7240666158702514e-03
    x[1,4]    findWorstP[4,1]  -1.1800592916211579e-01
    x[1,5]    allocateEach[5]  1
    x[1,5]    findWorstP[1,2]  3.7133755602474353e-02
    x[1,5]    findWorstP[1,3]  3.7133755602474353e-02
    x[1,5]    findWorstP[1,4]  3.7133755602474353e-02
    x[1,5]    findWorstP[2,1]  -1.0521341463414634e-01
    x[1,5]    findWorstP[3,1]  -1.4770871884184172e-01
    x[1,5]    findWorstP[4,1]  -5.5094398502106422e-02
    x[1,6]    allocateEach[6]  1
    x[1,6]    findWorstP[1,2]  1.3507056339593287e-01
    x[1,6]    findWorstP[1,3]  1.3507056339593287e-01
    x[1,6]    findWorstP[1,4]  1.3507056339593287e-01
    x[1,6]    findWorstP[2,1]  -7.4832317073170729e-02
    x[1,6]    findWorstP[3,1]  -1.6817241754653314e-01
    x[1,6]    findWorstP[4,1]  -1.1485411140583555e-01
    x[1,7]    allocateEach[7]  1
    x[1,7]    findWorstP[1,2]  1.1527206726673332e-01
    x[1,7]    findWorstP[1,3]  1.1527206726673332e-01
    x[1,7]    findWorstP[1,4]  1.1527206726673332e-01
    x[1,7]    findWorstP[2,1]  -1.1926829268292682e-01
    x[1,7]    findWorstP[3,1]  -0.00783716120605203
    x[1,7]    findWorstP[4,1]  -5.0007801529099713e-02
    x[1,8]    allocateEach[8]  1
    x[1,8]    findWorstP[1,2]  3.1762788457976816e-02
    x[1,8]    findWorstP[1,3]  3.1762788457976816e-02
    x[1,8]    findWorstP[1,4]  3.1762788457976816e-02
    x[1,8]    findWorstP[2,1]  -5.9466463414634144e-02
    x[1,8]    findWorstP[3,1]  -8.4097093719386090e-02
    x[1,8]    findWorstP[4,1]  -5.4361054766734286e-02
    x[1,9]    allocateEach[9]  1
    x[1,9]    findWorstP[1,2]  7.1896877430825637e-02
    x[1,9]    findWorstP[1,3]  7.1896877430825637e-02
    x[1,9]    findWorstP[1,4]  7.1896877430825637e-02
    x[1,9]    findWorstP[2,1]  -4.7942073170731708e-02
    x[1,9]    findWorstP[3,1]  -9.1433547403940354e-03
    x[1,9]    findWorstP[4,1]  -1.1046965205180216e-01
    x[2,1]    allocateEach[1]  1
    x[2,1]    findWorstP[1,2]  -1.6414786828166092e-01
    x[2,1]    findWorstP[2,1]  1.3141768292682926e-01
    x[2,1]    findWorstP[2,3]  1.3141768292682926e-01
    x[2,1]    findWorstP[2,4]  1.3141768292682926e-01
    x[2,1]    findWorstP[3,2]  -1.7701099379558072e-01
    x[2,1]    findWorstP[4,2]  -8.7845217662661887e-02
    x[2,2]    allocateEach[2]  1
    x[2,2]    findWorstP[1,2]  -1.2443975256509983e-01
    x[2,2]    findWorstP[2,1]  1.1570121951219511e-01
    x[2,2]    findWorstP[2,3]  1.1570121951219511e-01
    x[2,2]    findWorstP[2,4]  1.1570121951219511e-01
    x[2,2]    findWorstP[3,2]  -1.6717100250353761e-01
    x[2,2]    findWorstP[4,2]  -1.2827274145732565e-01
    x[2,3]    allocateEach[3]  1
    x[2,3]    findWorstP[1,2]  -1.0258547245990293e-01
    x[2,3]    findWorstP[2,1]  6.1326219512195121e-02
    x[2,3]    findWorstP[2,3]  6.1326219512195121e-02
    x[2,3]    findWorstP[2,4]  6.1326219512195121e-02
    x[2,3]    findWorstP[3,2]  -1.6436268640470229e-02
    x[2,3]    findWorstP[4,2]  -1.2505851146824778e-01
    x[2,4]    allocateEach[4]  1
    x[2,4]    findWorstP[1,2]  -3.2485090936029928e-02
    x[2,4]    findWorstP[2,1]  1.3239329268292682e-01
    x[2,4]    findWorstP[2,3]  1.3239329268292682e-01
    x[2,4]    findWorstP[2,4]  1.3239329268292682e-01
    x[2,4]    findWorstP[3,2]  -4.7240666158702514e-03
    x[2,4]    findWorstP[4,2]  -1.1800592916211579e-01
    x[2,5]    allocateEach[5]  1
    x[2,5]    findWorstP[1,2]  -3.7133755602474353e-02
    x[2,5]    findWorstP[2,1]  1.0521341463414634e-01
    x[2,5]    findWorstP[2,3]  1.0521341463414634e-01
    x[2,5]    findWorstP[2,4]  1.0521341463414634e-01
    x[2,5]    findWorstP[3,2]  -1.4770871884184172e-01
    x[2,5]    findWorstP[4,2]  -5.5094398502106422e-02
    x[2,6]    allocateEach[6]  1
    x[2,6]    findWorstP[1,2]  -1.3507056339593287e-01
    x[2,6]    findWorstP[2,1]  7.4832317073170729e-02
    x[2,6]    findWorstP[2,3]  7.4832317073170729e-02
    x[2,6]    findWorstP[2,4]  7.4832317073170729e-02
    x[2,6]    findWorstP[3,2]  -1.6817241754653314e-01
    x[2,6]    findWorstP[4,2]  -1.1485411140583555e-01
    x[2,7]    allocateEach[7]  1
    x[2,7]    findWorstP[1,2]  -1.1527206726673332e-01
    x[2,7]    findWorstP[2,1]  1.1926829268292682e-01
    x[2,7]    findWorstP[2,3]  1.1926829268292682e-01
    x[2,7]    findWorstP[2,4]  1.1926829268292682e-01
    x[2,7]    findWorstP[3,2]  -0.00783716120605203
    x[2,7]    findWorstP[4,2]  -5.0007801529099713e-02
    x[2,8]    allocateEach[8]  1
    x[2,8]    findWorstP[1,2]  -3.1762788457976816e-02
    x[2,8]    findWorstP[2,1]  5.9466463414634144e-02
    x[2,8]    findWorstP[2,3]  5.9466463414634144e-02
    x[2,8]    findWorstP[2,4]  5.9466463414634144e-02
    x[2,8]    findWorstP[3,2]  -8.4097093719386090e-02
    x[2,8]    findWorstP[4,2]  -5.4361054766734286e-02
    x[2,9]    allocateEach[9]  1
    x[2,9]    findWorstP[1,2]  -7.1896877430825637e-02
    x[2,9]    findWorstP[2,1]  4.7942073170731708e-02
    x[2,9]    findWorstP[2,3]  4.7942073170731708e-02
    x[2,9]    findWorstP[2,4]  4.7942073170731708e-02
    x[2,9]    findWorstP[3,2]  -9.1433547403940354e-03
    x[2,9]    findWorstP[4,2]  -1.1046965205180216e-01
    x[3,1]    allocateEach[1]  1
    x[3,1]    findWorstP[1,3]  -1.6414786828166092e-01
    x[3,1]    findWorstP[2,3]  -1.3141768292682926e-01
    x[3,1]    findWorstP[3,1]  1.7701099379558072e-01
    x[3,1]    findWorstP[3,2]  1.7701099379558072e-01
    x[3,1]    findWorstP[3,4]  1.7701099379558072e-01
    x[3,1]    findWorstP[4,3]  -8.7845217662661887e-02
    x[3,2]    allocateEach[2]  1
    x[3,2]    findWorstP[1,3]  -1.2443975256509983e-01
    x[3,2]    findWorstP[2,3]  -1.1570121951219511e-01
    x[3,2]    findWorstP[3,1]  1.6717100250353761e-01
    x[3,2]    findWorstP[3,2]  1.6717100250353761e-01
    x[3,2]    findWorstP[3,4]  1.6717100250353761e-01
    x[3,2]    findWorstP[4,3]  -1.2827274145732565e-01
    x[3,3]    allocateEach[3]  1
    x[3,3]    findWorstP[1,3]  -1.0258547245990293e-01
    x[3,3]    findWorstP[2,3]  -6.1326219512195121e-02
    x[3,3]    findWorstP[3,1]  1.6436268640470229e-02
    x[3,3]    findWorstP[3,2]  1.6436268640470229e-02
    x[3,3]    findWorstP[3,4]  1.6436268640470229e-02
    x[3,3]    findWorstP[4,3]  -1.2505851146824778e-01
    x[3,4]    allocateEach[4]  1
    x[3,4]    findWorstP[1,3]  -3.2485090936029928e-02
    x[3,4]    findWorstP[2,3]  -1.3239329268292682e-01
    x[3,4]    findWorstP[3,1]  4.7240666158702514e-03
    x[3,4]    findWorstP[3,2]  4.7240666158702514e-03
    x[3,4]    findWorstP[3,4]  4.7240666158702514e-03
    x[3,4]    findWorstP[4,3]  -1.1800592916211579e-01
    x[3,5]    allocateEach[5]  1
    x[3,5]    findWorstP[1,3]  -3.7133755602474353e-02
    x[3,5]    findWorstP[2,3]  -1.0521341463414634e-01
    x[3,5]    findWorstP[3,1]  1.4770871884184172e-01
    x[3,5]    findWorstP[3,2]  1.4770871884184172e-01
    x[3,5]    findWorstP[3,4]  1.4770871884184172e-01
    x[3,5]    findWorstP[4,3]  -5.5094398502106422e-02
    x[3,6]    allocateEach[6]  1
    x[3,6]    findWorstP[1,3]  -1.3507056339593287e-01
    x[3,6]    findWorstP[2,3]  -7.4832317073170729e-02
    x[3,6]    findWorstP[3,1]  1.6817241754653314e-01
    x[3,6]    findWorstP[3,2]  1.6817241754653314e-01
    x[3,6]    findWorstP[3,4]  1.6817241754653314e-01
    x[3,6]    findWorstP[4,3]  -1.1485411140583555e-01
    x[3,7]    allocateEach[7]  1
    x[3,7]    findWorstP[1,3]  -1.1527206726673332e-01
    x[3,7]    findWorstP[2,3]  -1.1926829268292682e-01
    x[3,7]    findWorstP[3,1]  0.00783716120605203
    x[3,7]    findWorstP[3,2]  0.00783716120605203
    x[3,7]    findWorstP[3,4]  0.00783716120605203
    x[3,7]    findWorstP[4,3]  -5.0007801529099713e-02
    x[3,8]    allocateEach[8]  1
    x[3,8]    findWorstP[1,3]  -3.1762788457976816e-02
    x[3,8]    findWorstP[2,3]  -5.9466463414634144e-02
    x[3,8]    findWorstP[3,1]  8.4097093719386090e-02
    x[3,8]    findWorstP[3,2]  8.4097093719386090e-02
    x[3,8]    findWorstP[3,4]  8.4097093719386090e-02
    x[3,8]    findWorstP[4,3]  -5.4361054766734286e-02
    x[3,9]    allocateEach[9]  1
    x[3,9]    findWorstP[1,3]  -7.1896877430825637e-02
    x[3,9]    findWorstP[2,3]  -4.7942073170731708e-02
    x[3,9]    findWorstP[3,1]  9.1433547403940354e-03
    x[3,9]    findWorstP[3,2]  9.1433547403940354e-03
    x[3,9]    findWorstP[3,4]  9.1433547403940354e-03
    x[3,9]    findWorstP[4,3]  -1.1046965205180216e-01
    x[4,1]    allocateEach[1]  1
    x[4,1]    findWorstP[1,4]  -1.6414786828166092e-01
    x[4,1]    findWorstP[2,4]  -1.3141768292682926e-01
    x[4,1]    findWorstP[3,4]  -1.7701099379558072e-01
    x[4,1]    findWorstP[4,1]  8.7845217662661887e-02
    x[4,1]    findWorstP[4,2]  8.7845217662661887e-02
    x[4,1]    findWorstP[4,3]  8.7845217662661887e-02
    x[4,2]    allocateEach[2]  1
    x[4,2]    findWorstP[1,4]  -1.2443975256509983e-01
    x[4,2]    findWorstP[2,4]  -1.1570121951219511e-01
    x[4,2]    findWorstP[3,4]  -1.6717100250353761e-01
    x[4,2]    findWorstP[4,1]  1.2827274145732565e-01
    x[4,2]    findWorstP[4,2]  1.2827274145732565e-01
    x[4,2]    findWorstP[4,3]  1.2827274145732565e-01
    x[4,3]    allocateEach[3]  1
    x[4,3]    findWorstP[1,4]  -1.0258547245990293e-01
    x[4,3]    findWorstP[2,4]  -6.1326219512195121e-02
    x[4,3]    findWorstP[3,4]  -1.6436268640470229e-02
    x[4,3]    findWorstP[4,1]  1.2505851146824778e-01
    x[4,3]    findWorstP[4,2]  1.2505851146824778e-01
    x[4,3]    findWorstP[4,3]  1.2505851146824778e-01
    x[4,4]    allocateEach[4]  1
    x[4,4]    findWorstP[1,4]  -3.2485090936029928e-02
    x[4,4]    findWorstP[2,4]  -1.3239329268292682e-01
    x[4,4]    findWorstP[3,4]  -4.7240666158702514e-03
    x[4,4]    findWorstP[4,1]  1.1800592916211579e-01
    x[4,4]    findWorstP[4,2]  1.1800592916211579e-01
    x[4,4]    findWorstP[4,3]  1.1800592916211579e-01
    x[4,5]    allocateEach[5]  1
    x[4,5]    findWorstP[1,4]  -3.7133755602474353e-02
    x[4,5]    findWorstP[2,4]  -1.0521341463414634e-01
    x[4,5]    findWorstP[3,4]  -1.4770871884184172e-01
    x[4,5]    findWorstP[4,1]  5.5094398502106422e-02
    x[4,5]    findWorstP[4,2]  5.5094398502106422e-02
    x[4,5]    findWorstP[4,3]  5.5094398502106422e-02
    x[4,6]    allocateEach[6]  1
    x[4,6]    findWorstP[1,4]  -1.3507056339593287e-01
    x[4,6]    findWorstP[2,4]  -7.4832317073170729e-02
    x[4,6]    findWorstP[3,4]  -1.6817241754653314e-01
    x[4,6]    findWorstP[4,1]  1.1485411140583555e-01
    x[4,6]    findWorstP[4,2]  1.1485411140583555e-01
    x[4,6]    findWorstP[4,3]  1.1485411140583555e-01
    x[4,7]    allocateEach[7]  1
    x[4,7]    findWorstP[1,4]  -1.1527206726673332e-01
    x[4,7]    findWorstP[2,4]  -1.1926829268292682e-01
    x[4,7]    findWorstP[3,4]  -0.00783716120605203
    x[4,7]    findWorstP[4,1]  5.0007801529099713e-02
    x[4,7]    findWorstP[4,2]  5.0007801529099713e-02
    x[4,7]    findWorstP[4,3]  5.0007801529099713e-02
    x[4,8]    allocateEach[8]  1
    x[4,8]    findWorstP[1,4]  -3.1762788457976816e-02
    x[4,8]    findWorstP[2,4]  -5.9466463414634144e-02
    x[4,8]    findWorstP[3,4]  -8.4097093719386090e-02
    x[4,8]    findWorstP[4,1]  5.4361054766734286e-02
    x[4,8]    findWorstP[4,2]  5.4361054766734286e-02
    x[4,8]    findWorstP[4,3]  5.4361054766734286e-02
    x[4,9]    allocateEach[9]  1
    x[4,9]    findWorstP[1,4]  -7.1896877430825637e-02
    x[4,9]    findWorstP[2,4]  -4.7942073170731708e-02
    x[4,9]    findWorstP[3,4]  -9.1433547403940354e-03
    x[4,9]    findWorstP[4,1]  1.1046965205180216e-01
    x[4,9]    findWorstP[4,2]  1.1046965205180216e-01
    x[4,9]    findWorstP[4,3]  1.1046965205180216e-01
    MARKER    'MARKER'                 'INTEND'
RHS
    RHS1      allocateEach[1]  1
    RHS1      allocateEach[2]  1
    RHS1      allocateEach[3]  1
    RHS1      allocateEach[4]  1
    RHS1      allocateEach[5]  1
    RHS1      allocateEach[6]  1
    RHS1      allocateEach[7]  1
    RHS1      allocateEach[8]  1
    RHS1      allocateEach[9]  1
    RHS1      allocateAllCash  1
BOUNDS
 UP BND1      z         1
 MI BND1      cashProportion[1]
 UP BND1      cashProportion[1]  1
 MI BND1      cashProportion[2]
 UP BND1      cashProportion[2]  1
 MI BND1      cashProportion[3]
 UP BND1      cashProportion[3]  1
 MI BND1      cashProportion[4]
 UP BND1      cashProportion[4]  1
 BV BND1      x[1,1]  
 BV BND1      x[1,2]  
 BV BND1      x[1,3]  
 BV BND1      x[1,4]  
 BV BND1      x[1,5]  
 BV BND1      x[1,6]  
 BV BND1      x[1,7]  
 BV BND1      x[1,8]  
 BV BND1      x[1,9]  
 BV BND1      x[2,1]  
 BV BND1      x[2,2]  
 BV BND1      x[2,3]  
 BV BND1      x[2,4]  
 BV BND1      x[2,5]  
 BV BND1      x[2,6]  
 BV BND1      x[2,7]  
 BV BND1      x[2,8]  
 BV BND1      x[2,9]  
 BV BND1      x[3,1]  
 BV BND1      x[3,2]  
 BV BND1      x[3,3]  
 BV BND1      x[3,4]  
 BV BND1      x[3,5]  
 BV BND1      x[3,6]  
 BV BND1      x[3,7]  
 BV BND1      x[3,8]  
 BV BND1      x[3,9]  
 BV BND1      x[4,1]  
 BV BND1      x[4,2]  
 BV BND1      x[4,3]  
 BV BND1      x[4,4]  
 BV BND1      x[4,5]  
 BV BND1      x[4,6]  
 BV BND1      x[4,7]  
 BV BND1      x[4,8]  
 BV BND1      x[4,9]  
ENDATA
